Running HiGHS 1.7.2 (git hash: 5ce7a2753): Copyright (c) 2024 HiGHS under MIT licence terms
Coefficient ranges:
  Matrix [1e+00, 1e+00]
  Cost   [1e+00, 1e+00]
  Bound  [1e+00, 1e+00]
  RHS    [1e+00, 1e+00]
Presolving model
96199 rows, 2684 cols, 194918 nonzeros  0s
49471 rows, 2684 cols, 101462 nonzeros  0s
10651 rows, 2682 cols, 69358 nonzeros  1s
10529 rows, 2682 cols, 69237 nonzeros  1s
Objective function is integral with scale 1

Solving MIP model with:
   10529 rows
   2682 cols (2682 binary, 0 integer, 0 implied int., 0 continuous)
   69237 nonzeros

        Nodes      |    B&B Tree     |            Objective Bounds              |  Dynamic Constraints |       Work      
     Proc. InQueue |  Leaves   Expl. | BestBound       BestSol              Gap |   Cuts   InLp Confl. | LpIters     Time

         0       0         0   0.00%   2               inf                  inf        0      0      0         0     1.5s
         0       0         0   0.00%   6.468060736     inf                  inf        0      0      6     23609    18.6s
         0       0         0   0.00%   6.494309524     inf                  inf        1      1     16     25572    26.6s
         0       0         0   0.00%   6.505590076     inf                  inf        4      4     38     26885    31.8s
 C       0       0         0   0.00%   6.508682014     21                69.01%        5      5    150     27362    33.9s
         0       0         0   0.00%   6.517259001     21                68.97%        8      8    150     28865    40.9s
 L       0       0         0   0.00%   6.519340956     15                56.54%        9      9    150     29518   126.7s

2.3% inactive integer columns, restarting
Model after restart has 10467 rows, 2620 cols (2620 bin., 0 int., 0 impl., 0 cont.), and 67787 nonzeros

         0       0         0   0.00%   6.519340956     15                56.54%        9      0      0     97949   127.4s
         0       0         0   0.00%   6.519340956     15                56.54%        9      9      8    100591   130.0s

67.5% inactive integer columns, restarting
Model after restart has 3320 rows, 852 cols (852 bin., 0 int., 0 impl., 0 cont.), and 21744 nonzeros

         0       0         0   0.00%   6.833659797     15                54.44%        2      0      0    103537   133.0s
         0       0         0   0.00%   6.833659797     15                54.44%        2      2     10    110053   135.2s
         0       0         0   0.00%   7.064601064     15                52.90%       13     13     10    113591   140.3s
        24       0         1   0.00%   7.105713589     15                52.63%       14     13     82    252136   176.1s
 T     150      31        44   0.00%   7.159413387     14                48.86%       49     14    759    271531   180.2s
       235      27        83  50.01%   7.159413387     14                48.86%      169     14    949    305148   188.9s
       328      42       127  50.03%   7.159707578     14                48.86%      198     17   1203    326497   193.9s
       413      44       168  50.03%   7.159707578     14                48.86%      225     19   1344    345973   199.0s
       463      40       191  50.04%   7.159707578     14                48.86%      338     36   1428    411595   216.0s
       563      49       241  50.04%   8.0625          14                42.41%      366     38   1666    438842   221.1s
       648      47       283  50.05%   8.0625          14                42.41%      416     40   1864    466504   226.2s

        Nodes      |    B&B Tree     |            Objective Bounds              |  Dynamic Constraints |       Work      
     Proc. InQueue |  Leaves   Expl. | BestBound       BestSol              Gap |   Cuts   InLp Confl. | LpIters     Time

       733      50       324  50.05%   8.0625          14                42.41%      430     25   2028    491953   231.2s
       819      51       368  50.05%   8.0625          14                42.41%      431     26   2140    519358   236.3s
       833      49       371  50.05%   8.0625          14                42.41%      513     39   2156    598749   252.5s
       926      62       416  50.06%   8.7             14                37.86%      535     40   2211    620698   257.7s
       987      58       445  50.07%   8.7             14                37.86%      833     39   2297    640910   262.8s
      1064      66       481  50.07%   8.7             14                37.86%      832     41   2356    664982   268.3s
      1154      67       525  50.07%   8.7             14                37.86%      832     41   2435    689289   273.4s
      1165      71       529  50.07%   8.7             14                37.86%      915     33   2457    741203   281.9s
      1238      72       566  50.07%   8.7             14                37.86%      915     33   2509    770597   287.0s
      1295      77       592  50.07%   8.7             14                37.86%      929     39   2625    799747   292.1s
      1360      81       624  50.07%   8.7             14                37.86%      931     39   2690    826126   297.1s

Solving report
  Status            Time limit reached
  Primal bound      14
  Dual bound        9
  Gap               35.71% (tolerance: 0.01%)
  Solution status   feasible
                    14 (objective)
                    0 (bound viol.)
                    0 (int. viol.)
                    0 (row viol.)
  Timing            300.00 (total)
                    2.22 (presolve)
                    0.00 (postsolve)
  Nodes             1373
  LP iterations     836152 (total)
                    318479 (strong br.)
                    34010 (separation)
                    68431 (heuristics)
ARGS = ["1", "300", "selected_instances/08.txt"]
instance = (60, 1062, [[21, 52, 34, 51, 12, 37, 27, 2, 40, 46, 17, 59, 28, 55, 11, 4, 30, 31, 19, 8, 25, 7, 60, 36, 39, 49, 6, 15, 54, 14], [26, 12, 37, 35, 9, 3, 27, 40, 48, 59, 1, 24, 28, 38, 4, 22, 31, 19, 8, 25, 7, 60, 56, 36, 53, 39, 5, 49, 33, 13, 6, 15, 58, 54, 41, 23, 14, 16, 47, 10, 21, 50, 34], [49, 13, 6, 15, 58, 54, 2, 23, 16, 47, 10, 21, 52, 34, 26, 37, 35, 9, 20, 27, 46, 17, 55, 11, 4, 42, 29, 31, 44, 8, 7, 36, 5, 43], [14, 57, 51, 26, 12, 37, 9, 27, 2, 59, 32, 24, 1, 38, 11, 22, 42, 30, 3, 44, 8, 7, 60, 56, 36, 53, 45, 5, 49, 13, 6, 15, 58], [47, 10, 52, 50, 57, 51, 26, 20, 27, 46, 48, 17, 32, 24, 28, 38, 11, 42, 30, 2, 29, 31, 44, 19, 25, 60, 36, 45, 39, 43, 49, 4, 23, 14, 3], [29, 31, 19, 3, 8, 7, 60, 56, 36, 45, 39, 49, 54, 41, 23, 16, 47, 21, 52, 34, 51, 26, 12, 37, 18, 20, 27, 40, 46, 2, 48, 32, 24, 28, 1, 11, 4], [6, 21, 52, 50, 34, 57, 51, 20, 27, 40, 48, 17, 59, 32, 38, 2, 55, 11, 22, 42, 30, 1, 19, 8, 25, 60, 56, 53, 4, 49, 13, 15, 3, 41, 23, 14], [6, 31, 44, 25, 56, 36, 53, 39, 49, 33, 13, 54, 41, 23, 14, 16, 47, 10, 21, 52, 50, 57, 26, 12, 2, 37, 18, 35, 9, 20, 27, 40, 1, 7, 4, 24, 3, 55, 22, 42], [51, 12, 37, 18, 2, 40, 46, 48, 17, 32, 24, 4, 28, 38, 11, 3, 42, 30, 29, 44, 19, 60, 8, 53, 39, 33, 13, 15, 54, 41, 23, 14, 10, 52, 50], [17, 32, 5, 38, 11, 3, 29, 44, 53, 8, 43, 49, 33, 13, 58, 54, 14, 16, 47, 21, 52, 34, 57, 26, 12, 37, 2, 27, 9, 40, 46, 48], [47, 10, 52, 50, 57, 51, 26, 12, 37, 18, 35, 20, 27, 40, 9, 46, 48, 17, 1, 5, 7, 28, 4, 55, 30, 3, 19, 36, 6, 43, 49, 33, 15, 58, 54], [45, 39, 43, 49, 2, 13, 9, 54, 1, 47, 21, 4, 52, 11, 50, 34, 57, 51, 26, 37, 18, 20, 27, 6, 8, 46, 48, 59, 32, 24, 28, 55, 10, 22, 30, 29, 31, 44, 25, 60, 56, 53], [3, 29, 19, 12, 25, 60, 56, 53, 39, 43, 8, 15, 58, 54, 14, 47, 52, 10, 34, 57, 26, 37, 27, 2, 9, 17, 32, 24, 28, 7, 38, 4, 22, 42, 30], [48, 17, 4, 32, 38, 42, 30, 13, 31, 19, 8, 25, 56, 43, 33, 10, 41, 47, 21, 52, 57, 51, 2, 9, 37, 18, 40, 1, 5, 7, 46], [31, 19, 25, 60, 36, 3, 53, 45, 39, 49, 33, 54, 13, 41, 23, 16, 47, 21, 50, 51, 18, 20, 27, 40, 48, 2, 9, 32, 24, 28, 38, 55, 1, 22, 7, 30, 4, 11], [25, 56, 39, 43, 49, 33, 3, 58, 41, 23, 15, 6, 47, 8, 52, 34, 18, 35, 10, 27, 40, 24, 2, 38, 55, 22, 30, 29, 44, 19], [10, 18, 14, 40, 59, 9, 24, 28, 55, 42, 1, 5, 30, 7, 29, 11, 19, 25, 60, 36, 3, 39, 43, 49, 58, 54, 13, 41, 23, 21, 52, 50, 57], [24, 17, 28, 9, 55, 22, 42, 29, 44, 19, 25, 36, 11, 53, 45, 43, 49, 58, 54, 12, 16, 15, 6, 21, 8, 52, 57, 51, 35, 20, 27, 14, 40, 46, 48, 59, 32], [15, 6, 13, 52, 50, 34, 57, 26, 18, 37, 35, 14, 27, 59, 32, 17, 28, 2, 9, 55, 22, 1, 5, 7, 60, 56, 36, 11, 53, 39, 33, 41, 16], [26, 37, 35, 27, 40, 46, 48, 59, 32, 5, 7, 24, 28, 11, 55, 22, 3, 12, 31, 25, 15, 56, 6, 53, 8, 45, 39, 49, 54, 18, 21, 52, 57, 51], [50, 1, 51, 7, 37, 3, 12, 48, 59, 32, 15, 6, 24, 8, 28, 38, 22, 42, 18, 29, 31, 44, 10, 25, 56, 36, 14, 53, 43, 49, 33, 58, 17, 41, 2, 20, 47], [27, 40, 46, 18, 32, 24, 38, 42, 30, 2, 31, 44, 20, 25, 36, 21, 53, 45, 39, 43, 7, 58, 19, 54, 4, 41, 23, 47, 12, 34, 57, 16, 15, 13, 8, 37], [52, 57, 51, 3, 37, 35, 16, 27, 15, 6, 8, 46, 48, 59, 32, 24, 28, 38, 55, 42, 29, 22, 60, 56, 36, 53, 17, 45, 39, 43, 2, 9, 58, 5, 7, 47], [18, 54, 41, 47, 22, 50, 57, 51, 17, 2, 20, 9, 35, 21, 27, 23, 5, 46, 48, 32, 4, 28, 55, 12, 42, 16, 15, 6, 13, 29, 31, 44, 8, 25, 60, 36, 53, 45, 49, 33], [16, 15, 13, 52, 8, 50, 34, 57, 18, 27, 40, 14, 48, 59, 22, 17, 38, 2, 20, 55, 21, 31, 1, 5, 7, 60, 53, 45, 43, 24, 49, 33, 54, 12, 41], [53, 2, 20, 54, 41, 5, 19, 4, 11, 52, 50, 34, 57, 3, 51, 12, 37, 35, 6, 13, 27, 8, 48, 59, 28, 10, 55, 42, 29, 44, 56, 36], [22, 37, 35, 2, 20, 46, 48, 23, 1, 5, 25, 7, 19, 28, 4, 11, 38, 24, 55, 42, 30, 3, 12, 26, 29, 44, 16, 36, 15, 6, 13, 53, 45, 8, 43, 49, 58, 54, 18, 10, 50, 34, 51], [18, 48, 59, 32, 17, 38, 2, 27, 20, 9, 42, 30, 21, 23, 31, 44, 1, 5, 60, 19, 45, 43, 11, 33, 24, 58, 54, 41, 12, 26, 47, 15, 6, 13, 34, 57, 51, 37], [6, 13, 47, 52, 50, 57, 18, 37, 10, 35, 32, 17, 27, 9, 38, 21, 42, 23, 30, 5, 31, 36, 24, 53, 39, 49, 3, 33, 12, 26, 58, 54, 16, 41], [41, 47, 50, 51, 14, 37, 22, 28, 17, 46, 48, 27, 9, 59, 32, 1, 5, 38, 55, 7, 29, 42, 4, 11, 44, 36, 12, 53, 39, 43, 49, 16, 15, 13], [15, 6, 8, 47, 50, 57, 14, 40, 48, 22, 59, 32, 28, 2, 20, 38, 55, 21, 42, 1, 5, 25, 29, 60, 36, 24, 39, 49, 33, 3, 12, 58], [58, 10, 54, 14, 41, 47, 22, 28, 52, 50, 34, 57, 20, 9, 21, 37, 35, 23, 5, 7, 40, 19, 31, 29, 30, 4, 46, 48, 24, 12, 38, 55, 42, 15, 6, 13, 60, 56, 53, 45, 39, 18, 33], [47, 34, 16, 57, 15, 8, 37, 35, 40, 46, 48, 59, 10, 14, 38, 28, 2, 9, 56, 36, 21, 53, 25, 19, 31, 29, 58, 54, 11, 41, 24, 32], [50, 51, 1, 33, 37, 7, 25, 19, 35, 32, 3, 12, 59, 26, 16, 6, 13, 38, 44, 53, 10, 45, 39, 58, 54, 41, 22, 28, 47, 2, 27, 52], [43, 49, 58, 54, 2, 27, 20, 41, 34, 23, 47, 33, 19, 29, 11, 51, 24, 32, 37, 3, 26, 16, 46, 48, 8, 38, 55, 18, 42, 44, 56, 36, 39], [15, 6, 52, 8, 37, 18, 46, 48, 59, 22, 17, 38, 2, 27, 21, 23, 1, 33, 5, 56, 19, 31, 29, 53, 30, 4, 39, 11, 43, 49, 24, 58, 54, 3, 35, 26], [51, 2, 27, 20, 9, 34, 21, 23, 40, 1, 33, 46, 36, 48, 19, 29, 59, 30, 4, 11, 32, 3, 35, 55, 12, 26, 42, 6, 13, 44, 8, 60, 56, 53, 45, 39, 43, 49, 58, 10, 14, 22, 28], [42, 44, 10, 60, 14, 39, 43, 22, 54, 28, 2, 27, 9, 47, 34, 21, 23, 50, 57, 33, 5, 51, 36, 7, 25, 31, 29, 30, 4, 32, 35, 40, 46, 16, 15, 13], [12, 44, 60, 56, 16, 15, 6, 13, 43, 8, 38, 54, 47, 50, 57, 22, 17, 2, 20, 9, 40, 37, 34, 46, 48, 59, 23, 1, 5, 36, 19, 31, 29, 30, 32, 42, 35], [55, 22, 17, 2, 20, 9, 37, 56, 53, 45, 1, 33, 7, 25, 31, 11, 32, 52, 16, 57, 15, 6, 39, 8, 38, 18, 59, 10, 14], [30, 24, 50, 32, 51, 35, 26, 16, 15, 6, 8, 55, 14, 44, 22, 60, 56, 28, 17, 53, 45, 43, 2, 9, 34, 58, 54, 21, 33, 7, 25, 19, 29, 47], [38, 18, 60, 56, 53, 45, 14, 43, 58, 22, 28, 17, 27, 9, 37, 52, 50, 21, 57, 23, 5, 7, 31, 29, 30, 4, 24, 32, 3, 46, 35, 48, 26, 59, 13, 39, 8], [35, 12, 44, 60, 56, 16, 53, 45, 13, 39, 42, 54, 38, 18, 47, 10, 52, 14, 50, 57, 22, 28, 17, 27, 37, 48, 21, 23, 41, 5, 36, 25, 30, 55, 11, 3], [43, 39, 8, 47, 38, 50, 57, 18, 10, 46, 48, 22, 59, 28, 27, 9, 37, 34, 21, 41, 5, 30, 4, 60, 24, 53, 49, 3, 35, 12, 26, 54, 16], [12, 52, 15, 6, 57, 43, 42, 40, 18, 59, 22, 28, 27, 20, 37, 34, 56, 23, 41, 53, 5, 25, 4, 24, 32], [22, 27, 20, 60, 9, 37, 53, 49, 23, 1, 33, 5, 54, 36, 44, 30, 11, 24, 32, 52, 3, 35, 12, 57, 6, 39, 42, 38, 48, 59, 18, 10, 14], [52, 33, 50, 5, 57, 44, 31, 51, 29, 30, 11, 24, 32, 3, 35, 12, 48, 16, 15, 6, 13, 43, 39, 8, 38, 55, 10, 14, 60, 53, 49, 22, 28, 54, 2, 34, 21, 23, 41], [14, 28, 2, 27, 20, 9, 37, 21, 47, 23, 55, 33, 5, 36, 7, 25, 44, 31, 30, 11, 24, 32, 60, 56, 35, 12, 53, 26, 49, 15, 6, 43, 39, 42, 46, 50, 18, 57, 51, 10], [3, 35, 12, 59, 16, 15, 6, 8, 46, 18, 10, 58, 17, 48, 27, 2, 20, 37, 52, 21, 47, 57, 51, 1, 5, 36, 7, 25, 44, 31, 29, 30, 4, 11, 24], [34, 21, 57, 47, 51, 41, 5, 7, 25, 19, 44, 31, 29, 30, 11, 24, 32, 12, 59, 26, 15, 43, 39, 55, 8, 42, 38, 60, 53, 58, 54, 17, 48, 2, 27, 9, 52], [9, 37, 34, 50, 21, 47, 23, 41, 1, 5, 7, 30, 4, 11, 24, 60, 56, 35, 53, 12, 26, 58, 15, 6, 38, 52, 18, 14, 49, 28, 48, 59, 27, 20], [59, 47, 23, 1, 5, 45, 36, 7, 25, 19, 29, 11, 32, 3, 12, 26, 60, 56, 16, 53, 6, 13, 43, 8, 58, 42, 46, 40, 18, 51, 10, 14, 49, 17, 20, 9, 34, 50], [26, 15, 13, 43, 8, 42, 46, 40, 18, 51, 52, 10, 22, 58, 54, 48, 2, 27, 20, 9, 37, 34, 50, 21, 47, 23, 41, 33, 45, 36, 7, 25, 19, 44, 29, 30, 4, 24, 32, 12], [24, 32, 59, 3, 35, 12, 26, 15, 6, 13, 43, 39, 8, 38, 46, 18, 10, 58, 53, 22, 28, 17, 2, 27, 20, 9, 34, 50, 47, 41, 1, 33, 36, 25, 44, 29, 11], [40, 18, 59, 17, 48, 27, 20, 37, 50, 47, 56, 23, 41, 1, 7, 25, 19, 31, 30, 58, 11, 24, 32, 3, 35, 12, 26, 16, 15, 57, 43, 8], [16, 6, 13, 43, 39, 59, 8, 42, 40, 51, 52, 14, 60, 55, 48, 58, 2, 20, 37, 21, 23, 41, 33, 45, 36, 7, 19, 4, 32, 35, 12, 26], [50, 47, 23, 33, 58, 5, 45, 7, 25, 19, 44, 31, 29, 4, 11, 24, 32, 12, 26, 13, 43, 39, 8, 42, 38, 46, 40, 59, 18, 10, 14, 49, 22, 55, 28, 17, 48, 20], [32, 59, 3, 35, 57, 16, 13, 42, 18, 51, 52, 10, 54, 49, 53, 56, 22, 55, 28, 17, 2, 27, 37, 50, 34, 21, 23, 41, 33, 36, 31, 29, 4, 11], [52, 54, 58, 49, 56, 55, 28, 60, 17, 2, 20, 37, 34, 50, 21, 23, 1, 33, 45, 36, 7, 25, 19, 44, 31, 30, 4, 12, 26, 57, 39, 42, 46, 40, 18, 51], [15, 6, 13, 43, 39, 42, 38, 59, 46, 51, 52, 56, 28, 17, 48, 2, 9, 37, 50, 47, 23, 41, 1, 5, 7, 25, 19, 44, 31, 4, 24, 32, 12]], 44)
round.(value.(model[:x])) = [1.0 0.0 0.0 0.0 0.0 0.0 -0.0 0.0 0.0 -0.0 -0.0 0.0 0.0 0.0 0.0 0.0 0.0 0.0 0.0 0.0 0.0 0.0 0.0 0.0 0.0 0.0 0.0 0.0 0.0 0.0 0.0 0.0 0.0 0.0 0.0 0.0 0.0 0.0 0.0 0.0 0.0 0.0 0.0 0.0; 0.0 0.0 0.0 0.0 0.0 0.0 0.0 -0.0 0.0 0.0 0.0 0.0 1.0 0.0 0.0 0.0 0.0 0.0 0.0 0.0 0.0 0.0 0.0 0.0 0.0 0.0 0.0 0.0 0.0 0.0 0.0 0.0 0.0 0.0 0.0 0.0 0.0 0.0 0.0 0.0 0.0 0.0 0.0 0.0; -0.0 0.0 0.0 -0.0 0.0 0.0 1.0 0.0 0.0 0.0 0.0 -0.0 0.0 0.0 0.0 0.0 0.0 0.0 0.0 0.0 0.0 0.0 0.0 0.0 0.0 0.0 0.0 0.0 0.0 0.0 0.0 0.0 0.0 0.0 0.0 0.0 0.0 0.0 0.0 0.0 0.0 0.0 0.0 0.0; 0.0 0.0 0.0 -0.0 0.0 1.0 0.0 0.0 -0.0 0.0 0.0 0.0 0.0 0.0 0.0 0.0 0.0 0.0 0.0 0.0 0.0 0.0 0.0 0.0 0.0 0.0 0.0 0.0 0.0 0.0 0.0 0.0 0.0 0.0 0.0 0.0 0.0 0.0 0.0 0.0 0.0 0.0 0.0 0.0; 0.0 0.0 0.0 0.0 1.0 0.0 0.0 0.0 0.0 0.0 0.0 0.0 0.0 -0.0 0.0 0.0 0.0 0.0 0.0 0.0 0.0 0.0 0.0 0.0 0.0 0.0 0.0 0.0 0.0 0.0 0.0 0.0 0.0 0.0 0.0 0.0 0.0 0.0 0.0 0.0 0.0 0.0 0.0 0.0; 0.0 -0.0 0.0 0.0 0.0 0.0 0.0 0.0 1.0 0.0 0.0 0.0 0.0 0.0 0.0 0.0 0.0 0.0 0.0 0.0 0.0 0.0 0.0 0.0 0.0 0.0 0.0 0.0 0.0 0.0 0.0 0.0 0.0 0.0 0.0 0.0 0.0 0.0 0.0 0.0 0.0 0.0 0.0 0.0; -0.0 0.0 0.0 0.0 0.0 0.0 0.0 0.0 0.0 1.0 0.0 0.0 0.0 0.0 0.0 0.0 0.0 0.0 0.0 0.0 0.0 0.0 0.0 0.0 0.0 0.0 0.0 0.0 0.0 0.0 0.0 0.0 0.0 0.0 0.0 0.0 0.0 0.0 0.0 0.0 0.0 0.0 0.0 0.0; 0.0 0.0 0.0 0.0 0.0 0.0 0.0 0.0 -0.0 0.0 0.0 0.0 0.0 1.0 0.0 0.0 0.0 0.0 0.0 0.0 0.0 0.0 0.0 0.0 0.0 0.0 0.0 0.0 0.0 0.0 0.0 0.0 0.0 0.0 0.0 0.0 0.0 0.0 0.0 0.0 0.0 0.0 0.0 0.0; 0.0 -0.0 0.0 0.0 1.0 0.0 -0.0 0.0 0.0 0.0 -0.0 0.0 0.0 0.0 0.0 0.0 0.0 0.0 0.0 0.0 0.0 0.0 0.0 0.0 0.0 0.0 0.0 0.0 0.0 0.0 0.0 0.0 0.0 0.0 0.0 0.0 0.0 0.0 0.0 0.0 0.0 0.0 0.0 0.0; 0.0 0.0 0.0 0.0 0.0 -0.0 0.0 0.0 0.0 1.0 0.0 -0.0 0.0 0.0 0.0 0.0 0.0 0.0 0.0 0.0 0.0 0.0 0.0 0.0 0.0 0.0 0.0 0.0 0.0 0.0 0.0 0.0 0.0 0.0 0.0 0.0 0.0 0.0 0.0 0.0 0.0 0.0 0.0 0.0; 0.0 0.0 0.0 0.0 0.0 0.0 0.0 0.0 0.0 -0.0 0.0 0.0 1.0 0.0 0.0 0.0 0.0 0.0 0.0 0.0 0.0 0.0 0.0 0.0 0.0 0.0 0.0 0.0 0.0 0.0 0.0 0.0 0.0 0.0 0.0 0.0 0.0 0.0 0.0 0.0 0.0 0.0 0.0 0.0; 0.0 0.0 0.0 0.0 0.0 0.0 -0.0 1.0 0.0 0.0 0.0 0.0 0.0 0.0 0.0 0.0 0.0 0.0 0.0 0.0 0.0 0.0 0.0 0.0 0.0 0.0 0.0 0.0 0.0 0.0 0.0 0.0 0.0 0.0 0.0 0.0 0.0 0.0 0.0 0.0 0.0 0.0 0.0 0.0; 0.0 0.0 0.0 0.0 0.0 0.0 0.0 0.0 -0.0 0.0 1.0 0.0 0.0 0.0 0.0 0.0 0.0 0.0 0.0 0.0 0.0 0.0 0.0 0.0 0.0 0.0 0.0 0.0 0.0 0.0 0.0 0.0 0.0 0.0 0.0 0.0 0.0 0.0 0.0 0.0 0.0 0.0 0.0 0.0; 0.0 0.0 0.0 0.0 0.0 0.0 0.0 -0.0 0.0 0.0 0.0 1.0 0.0 -0.0 0.0 0.0 0.0 0.0 0.0 0.0 0.0 0.0 0.0 0.0 0.0 0.0 0.0 0.0 0.0 0.0 0.0 0.0 0.0 0.0 0.0 0.0 0.0 0.0 0.0 0.0 0.0 0.0 0.0 0.0; 0.0 0.0 0.0 -0.0 0.0 0.0 0.0 1.0 0.0 0.0 0.0 0.0 0.0 -0.0 0.0 0.0 0.0 0.0 0.0 0.0 0.0 0.0 0.0 0.0 0.0 0.0 0.0 0.0 0.0 0.0 0.0 0.0 0.0 0.0 0.0 0.0 0.0 0.0 0.0 0.0 0.0 0.0 0.0 0.0; 0.0 0.0 0.0 0.0 0.0 0.0 -0.0 -0.0 -0.0 0.0 1.0 0.0 0.0 0.0 0.0 0.0 0.0 0.0 0.0 0.0 0.0 0.0 0.0 0.0 0.0 0.0 0.0 0.0 0.0 0.0 0.0 0.0 0.0 0.0 0.0 0.0 0.0 0.0 0.0 0.0 0.0 0.0 0.0 0.0; 0.0 1.0 0.0 0.0 0.0 0.0 -0.0 0.0 -0.0 0.0 0.0 0.0 -0.0 0.0 0.0 0.0 0.0 0.0 0.0 0.0 0.0 0.0 0.0 0.0 0.0 0.0 0.0 0.0 0.0 0.0 0.0 0.0 0.0 0.0 0.0 0.0 0.0 0.0 0.0 0.0 0.0 0.0 0.0 0.0; 1.0 -0.0 0.0 0.0 0.0 0.0 0.0 0.0 0.0 0.0 0.0 0.0 0.0 0.0 0.0 0.0 0.0 0.0 0.0 0.0 0.0 0.0 0.0 0.0 0.0 0.0 0.0 0.0 0.0 0.0 0.0 0.0 0.0 0.0 0.0 0.0 0.0 0.0 0.0 0.0 0.0 0.0 0.0 0.0; 0.0 0.0 0.0 1.0 0.0 0.0 0.0 0.0 0.0 0.0 0.0 0.0 0.0 -0.0 0.0 0.0 0.0 0.0 0.0 0.0 0.0 0.0 0.0 0.0 0.0 0.0 0.0 0.0 0.0 0.0 0.0 0.0 0.0 0.0 0.0 0.0 0.0 0.0 0.0 0.0 0.0 0.0 0.0 0.0; 0.0 0.0 0.0 0.0 0.0 0.0 0.0 0.0 0.0 0.0 1.0 0.0 0.0 0.0 0.0 0.0 0.0 0.0 0.0 0.0 0.0 0.0 0.0 0.0 0.0 0.0 0.0 0.0 0.0 0.0 0.0 0.0 0.0 0.0 0.0 0.0 0.0 0.0 0.0 0.0 0.0 0.0 0.0 0.0; 0.0 0.0 0.0 0.0 1.0 0.0 -0.0 0.0 0.0 0.0 0.0 0.0 0.0 0.0 0.0 0.0 0.0 0.0 0.0 0.0 0.0 0.0 0.0 0.0 0.0 0.0 0.0 0.0 0.0 0.0 0.0 0.0 0.0 0.0 0.0 0.0 0.0 0.0 0.0 0.0 0.0 0.0 0.0 0.0; 0.0 0.0 0.0 0.0 0.0 0.0 -0.0 0.0 0.0 0.0 -0.0 1.0 0.0 0.0 0.0 0.0 0.0 0.0 0.0 0.0 0.0 0.0 0.0 0.0 0.0 0.0 0.0 0.0 0.0 0.0 0.0 0.0 0.0 0.0 0.0 0.0 0.0 0.0 0.0 0.0 0.0 0.0 0.0 0.0; 1.0 0.0 -0.0 -0.0 0.0 0.0 0.0 0.0 0.0 0.0 -0.0 0.0 0.0 0.0 0.0 0.0 0.0 0.0 0.0 0.0 0.0 0.0 0.0 0.0 0.0 0.0 0.0 0.0 0.0 0.0 0.0 0.0 0.0 0.0 0.0 0.0 0.0 0.0 0.0 0.0 0.0 0.0 0.0 0.0; 0.0 0.0 0.0 -0.0 0.0 0.0 0.0 0.0 0.0 1.0 0.0 0.0 0.0 0.0 0.0 0.0 0.0 0.0 0.0 0.0 0.0 0.0 0.0 0.0 0.0 0.0 0.0 0.0 0.0 0.0 0.0 0.0 0.0 0.0 0.0 0.0 0.0 0.0 0.0 0.0 0.0 0.0 0.0 0.0; 0.0 0.0 1.0 0.0 0.0 0.0 0.0 0.0 0.0 0.0 0.0 0.0 0.0 -0.0 0.0 0.0 0.0 0.0 0.0 0.0 0.0 0.0 0.0 0.0 0.0 0.0 0.0 0.0 0.0 0.0 0.0 0.0 0.0 0.0 0.0 0.0 0.0 0.0 0.0 0.0 0.0 0.0 0.0 0.0; 1.0 0.0 0.0 -0.0 0.0 0.0 0.0 0.0 0.0 -0.0 0.0 0.0 0.0 0.0 0.0 0.0 0.0 0.0 0.0 0.0 0.0 0.0 0.0 0.0 0.0 0.0 0.0 0.0 0.0 0.0 0.0 0.0 0.0 0.0 0.0 0.0 0.0 0.0 0.0 0.0 0.0 0.0 0.0 0.0; 0.0 1.0 0.0 0.0 0.0 0.0 0.0 0.0 0.0 0.0 -0.0 0.0 0.0 0.0 0.0 0.0 0.0 0.0 0.0 0.0 0.0 0.0 0.0 0.0 0.0 0.0 0.0 0.0 0.0 0.0 0.0 0.0 0.0 0.0 0.0 0.0 0.0 0.0 0.0 0.0 0.0 0.0 0.0 0.0; 0.0 0.0 -0.0 0.0 0.0 0.0 0.0 0.0 0.0 0.0 0.0 1.0 0.0 0.0 0.0 0.0 0.0 0.0 0.0 0.0 0.0 0.0 0.0 0.0 0.0 0.0 0.0 0.0 0.0 0.0 0.0 0.0 0.0 0.0 0.0 0.0 0.0 0.0 0.0 0.0 0.0 0.0 0.0 0.0; 0.0 0.0 0.0 1.0 0.0 0.0 -0.0 0.0 0.0 0.0 0.0 0.0 0.0 0.0 0.0 0.0 0.0 0.0 0.0 0.0 0.0 0.0 0.0 0.0 0.0 0.0 0.0 0.0 0.0 0.0 0.0 0.0 0.0 0.0 0.0 0.0 0.0 0.0 0.0 0.0 0.0 0.0 0.0 0.0; -0.0 0.0 0.0 -0.0 0.0 0.0 0.0 0.0 0.0 0.0 0.0 0.0 0.0 1.0 0.0 0.0 0.0 0.0 0.0 0.0 0.0 0.0 0.0 0.0 0.0 0.0 0.0 0.0 0.0 0.0 0.0 0.0 0.0 0.0 0.0 0.0 0.0 0.0 0.0 0.0 0.0 0.0 0.0 0.0; -0.0 0.0 0.0 0.0 -0.0 1.0 0.0 0.0 0.0 0.0 0.0 0.0 0.0 0.0 0.0 0.0 0.0 0.0 0.0 0.0 0.0 0.0 0.0 0.0 0.0 0.0 0.0 0.0 0.0 0.0 0.0 0.0 0.0 0.0 0.0 0.0 0.0 0.0 0.0 0.0 0.0 0.0 0.0 0.0; 0.0 0.0 0.0 0.0 0.0 0.0 0.0 -0.0 -0.0 0.0 0.0 0.0 1.0 0.0 0.0 0.0 0.0 0.0 0.0 0.0 0.0 0.0 0.0 0.0 0.0 0.0 0.0 0.0 0.0 0.0 0.0 0.0 0.0 0.0 0.0 0.0 0.0 0.0 0.0 0.0 0.0 0.0 0.0 0.0; 1.0 0.0 0.0 0.0 0.0 0.0 0.0 0.0 0.0 0.0 0.0 0.0 -0.0 0.0 0.0 0.0 0.0 0.0 0.0 0.0 0.0 0.0 0.0 0.0 0.0 0.0 0.0 0.0 0.0 0.0 0.0 0.0 0.0 0.0 0.0 0.0 0.0 0.0 0.0 0.0 0.0 0.0 0.0 0.0; 0.0 -0.0 0.0 0.0 1.0 0.0 0.0 0.0 0.0 -0.0 0.0 0.0 0.0 0.0 0.0 0.0 0.0 0.0 0.0 0.0 0.0 0.0 0.0 0.0 0.0 0.0 0.0 0.0 0.0 0.0 0.0 0.0 0.0 0.0 0.0 0.0 0.0 0.0 0.0 0.0 0.0 0.0 0.0 0.0; 0.0 0.0 0.0 -0.0 -0.0 0.0 0.0 0.0 1.0 0.0 0.0 0.0 0.0 0.0 0.0 0.0 0.0 0.0 0.0 0.0 0.0 0.0 0.0 0.0 0.0 0.0 0.0 0.0 0.0 0.0 0.0 0.0 0.0 0.0 0.0 0.0 0.0 0.0 0.0 0.0 0.0 0.0 0.0 0.0; 0.0 0.0 0.0 -0.0 0.0 0.0 0.0 0.0 0.0 0.0 1.0 -0.0 -0.0 0.0 0.0 0.0 0.0 0.0 0.0 0.0 0.0 0.0 0.0 0.0 0.0 0.0 0.0 0.0 0.0 0.0 0.0 0.0 0.0 0.0 0.0 0.0 0.0 0.0 0.0 0.0 0.0 0.0 0.0 0.0; 0.0 0.0 1.0 0.0 0.0 0.0 0.0 0.0 0.0 0.0 0.0 0.0 0.0 -0.0 0.0 0.0 0.0 0.0 0.0 0.0 0.0 0.0 0.0 0.0 0.0 0.0 0.0 0.0 0.0 0.0 0.0 0.0 0.0 0.0 0.0 0.0 0.0 0.0 0.0 0.0 0.0 0.0 0.0 0.0; 0.0 0.0 0.0 0.0 0.0 0.0 1.0 0.0 0.0 -0.0 0.0 0.0 0.0 -0.0 0.0 0.0 0.0 0.0 0.0 0.0 0.0 0.0 0.0 0.0 0.0 0.0 0.0 0.0 0.0 0.0 0.0 0.0 0.0 0.0 0.0 0.0 0.0 0.0 0.0 0.0 0.0 0.0 0.0 0.0; -0.0 0.0 0.0 0.0 0.0 0.0 0.0 0.0 0.0 1.0 0.0 0.0 0.0 0.0 0.0 0.0 0.0 0.0 0.0 0.0 0.0 0.0 0.0 0.0 0.0 0.0 0.0 0.0 0.0 0.0 0.0 0.0 0.0 0.0 0.0 0.0 0.0 0.0 0.0 0.0 0.0 0.0 0.0 0.0; 0.0 -0.0 0.0 1.0 0.0 0.0 0.0 0.0 0.0 0.0 0.0 0.0 0.0 0.0 0.0 0.0 0.0 0.0 0.0 0.0 0.0 0.0 0.0 0.0 0.0 0.0 0.0 0.0 0.0 0.0 0.0 0.0 0.0 0.0 0.0 0.0 0.0 0.0 0.0 0.0 0.0 0.0 0.0 0.0; 0.0 0.0 -0.0 -0.0 0.0 0.0 1.0 0.0 0.0 0.0 0.0 0.0 0.0 0.0 0.0 0.0 0.0 0.0 0.0 0.0 0.0 0.0 0.0 0.0 0.0 0.0 0.0 0.0 0.0 0.0 0.0 0.0 0.0 0.0 0.0 0.0 0.0 0.0 0.0 0.0 0.0 0.0 0.0 0.0; 0.0 0.0 0.0 -0.0 0.0 0.0 0.0 1.0 0.0 0.0 0.0 0.0 0.0 0.0 0.0 0.0 0.0 0.0 0.0 0.0 0.0 0.0 0.0 0.0 0.0 0.0 0.0 0.0 0.0 0.0 0.0 0.0 0.0 0.0 0.0 0.0 0.0 0.0 0.0 0.0 0.0 0.0 0.0 0.0; 0.0 0.0 0.0 1.0 0.0 0.0 0.0 0.0 0.0 0.0 0.0 0.0 0.0 -0.0 0.0 0.0 0.0 0.0 0.0 0.0 0.0 0.0 0.0 0.0 0.0 0.0 0.0 0.0 0.0 0.0 0.0 0.0 0.0 0.0 0.0 0.0 0.0 0.0 0.0 0.0 0.0 0.0 0.0 0.0; 0.0 0.0 0.0 0.0 0.0 0.0 0.0 0.0 -0.0 0.0 -0.0 0.0 1.0 0.0 0.0 0.0 0.0 0.0 0.0 0.0 0.0 0.0 0.0 0.0 0.0 0.0 0.0 0.0 0.0 0.0 0.0 0.0 0.0 0.0 0.0 0.0 0.0 0.0 0.0 0.0 0.0 0.0 0.0 0.0; 0.0 0.0 0.0 0.0 0.0 -0.0 -0.0 0.0 0.0 0.0 0.0 0.0 -0.0 1.0 0.0 0.0 0.0 0.0 0.0 0.0 0.0 0.0 0.0 0.0 0.0 0.0 0.0 0.0 0.0 0.0 0.0 0.0 0.0 0.0 0.0 0.0 0.0 0.0 0.0 0.0 0.0 0.0 0.0 0.0; 0.0 0.0 0.0 1.0 0.0 0.0 0.0 0.0 0.0 0.0 0.0 -0.0 0.0 -0.0 0.0 0.0 0.0 0.0 0.0 0.0 0.0 0.0 0.0 0.0 0.0 0.0 0.0 0.0 0.0 0.0 0.0 0.0 0.0 0.0 0.0 0.0 0.0 0.0 0.0 0.0 0.0 0.0 0.0 0.0; 0.0 1.0 -0.0 0.0 0.0 0.0 0.0 0.0 0.0 0.0 0.0 0.0 0.0 0.0 0.0 0.0 0.0 0.0 0.0 0.0 0.0 0.0 0.0 0.0 0.0 0.0 0.0 0.0 0.0 0.0 0.0 0.0 0.0 0.0 0.0 0.0 0.0 0.0 0.0 0.0 0.0 0.0 0.0 0.0; 0.0 0.0 0.0 0.0 0.0 -0.0 1.0 0.0 0.0 0.0 0.0 0.0 0.0 0.0 0.0 0.0 0.0 0.0 0.0 0.0 0.0 0.0 0.0 0.0 0.0 0.0 0.0 0.0 0.0 0.0 0.0 0.0 0.0 0.0 0.0 0.0 0.0 0.0 0.0 0.0 0.0 0.0 0.0 0.0; 0.0 0.0 0.0 -0.0 0.0 0.0 0.0 0.0 0.0 0.0 0.0 1.0 0.0 0.0 0.0 0.0 0.0 0.0 0.0 0.0 0.0 0.0 0.0 0.0 0.0 0.0 0.0 0.0 0.0 0.0 0.0 0.0 0.0 0.0 0.0 0.0 0.0 0.0 0.0 0.0 0.0 0.0 0.0 0.0; 0.0 0.0 0.0 0.0 0.0 0.0 0.0 0.0 0.0 0.0 0.0 1.0 0.0 0.0 0.0 0.0 0.0 0.0 0.0 0.0 0.0 0.0 0.0 0.0 0.0 0.0 0.0 0.0 0.0 0.0 0.0 0.0 0.0 0.0 0.0 0.0 0.0 0.0 0.0 0.0 0.0 0.0 0.0 0.0; 0.0 0.0 0.0 1.0 0.0 0.0 0.0 0.0 0.0 0.0 0.0 0.0 -0.0 0.0 0.0 0.0 0.0 0.0 0.0 0.0 0.0 0.0 0.0 0.0 0.0 0.0 0.0 0.0 0.0 0.0 0.0 0.0 0.0 0.0 0.0 0.0 0.0 0.0 0.0 0.0 0.0 0.0 0.0 0.0; 0.0 0.0 0.0 0.0 0.0 1.0 0.0 0.0 -0.0 0.0 0.0 0.0 -0.0 0.0 0.0 0.0 0.0 0.0 0.0 0.0 0.0 0.0 0.0 0.0 0.0 0.0 0.0 0.0 0.0 0.0 0.0 0.0 0.0 0.0 0.0 0.0 0.0 0.0 0.0 0.0 0.0 0.0 0.0 0.0; 0.0 0.0 0.0 0.0 0.0 -0.0 0.0 0.0 1.0 0.0 0.0 0.0 0.0 0.0 0.0 0.0 0.0 0.0 0.0 0.0 0.0 0.0 0.0 0.0 0.0 0.0 0.0 0.0 0.0 0.0 0.0 0.0 0.0 0.0 0.0 0.0 0.0 0.0 0.0 0.0 0.0 0.0 0.0 0.0; -0.0 0.0 0.0 0.0 0.0 1.0 0.0 0.0 0.0 0.0 0.0 0.0 0.0 0.0 0.0 0.0 0.0 0.0 0.0 0.0 0.0 0.0 0.0 0.0 0.0 0.0 0.0 0.0 0.0 0.0 0.0 0.0 0.0 0.0 0.0 0.0 0.0 0.0 0.0 0.0 0.0 0.0 0.0 0.0; 0.0 0.0 0.0 0.0 1.0 0.0 0.0 0.0 -0.0 -0.0 0.0 0.0 0.0 0.0 0.0 0.0 0.0 0.0 0.0 0.0 0.0 0.0 0.0 0.0 0.0 0.0 0.0 0.0 0.0 0.0 0.0 0.0 0.0 0.0 0.0 0.0 0.0 0.0 0.0 0.0 0.0 0.0 0.0 0.0; -0.0 1.0 0.0 0.0 0.0 0.0 0.0 0.0 0.0 -0.0 0.0 -0.0 0.0 0.0 0.0 0.0 0.0 0.0 0.0 0.0 0.0 0.0 0.0 0.0 0.0 0.0 0.0 0.0 0.0 0.0 0.0 0.0 0.0 0.0 0.0 0.0 0.0 0.0 0.0 0.0 0.0 0.0 0.0 0.0; 0.0 0.0 0.0 0.0 0.0 -0.0 0.0 0.0 1.0 0.0 0.0 0.0 0.0 0.0 0.0 0.0 0.0 0.0 0.0 0.0 0.0 0.0 0.0 0.0 0.0 0.0 0.0 0.0 0.0 0.0 0.0 0.0 0.0 0.0 0.0 0.0 0.0 0.0 0.0 0.0 0.0 0.0 0.0 0.0; 0.0 0.0 0.0 0.0 0.0 0.0 0.0 0.0 -0.0 0.0 0.0 0.0 0.0 1.0 0.0 0.0 0.0 0.0 0.0 0.0 0.0 0.0 0.0 0.0 0.0 0.0 0.0 0.0 0.0 0.0 0.0 0.0 0.0 0.0 0.0 0.0 0.0 0.0 0.0 0.0 0.0 0.0 0.0 0.0; 0.0 -0.0 0.0 0.0 0.0 0.0 1.0 0.0 -0.0 -0.0 0.0 0.0 0.0 0.0 0.0 0.0 0.0 0.0 0.0 0.0 0.0 0.0 0.0 0.0 0.0 0.0 0.0 0.0 0.0 0.0 0.0 0.0 0.0 0.0 0.0 0.0 0.0 0.0 0.0 0.0 0.0 0.0 0.0 0.0; -0.0 0.0 0.0 0.0 0.0 0.0 0.0 0.0 0.0 -0.0 0.0 -0.0 0.0 1.0 0.0 0.0 0.0 0.0 0.0 0.0 0.0 0.0 0.0 0.0 0.0 0.0 0.0 0.0 0.0 0.0 0.0 0.0 0.0 0.0 0.0 0.0 0.0 0.0 0.0 0.0 0.0 0.0 0.0 0.0]
round.(value.(model[:y])) = [1.0, 1.0, 1.0, 1.0, 1.0, 1.0, 1.0, 1.0, 1.0, 1.0, 1.0, 1.0, 1.0, 1.0, 0.0, 0.0, 0.0, 0.0, 0.0, 0.0, 0.0, 0.0, 0.0, 0.0, 0.0, 0.0, 0.0, 0.0, 0.0, 0.0, 0.0, 0.0, 0.0, 0.0, 0.0, 0.0, 0.0, 0.0, 0.0, 0.0, 0.0, 0.0, 0.0, 0.0]
(n, m, A) = (60, 1062, [[21, 52, 34, 51, 12, 37, 27, 2, 40, 46, 17, 59, 28, 55, 11, 4, 30, 31, 19, 8, 25, 7, 60, 36, 39, 49, 6, 15, 54, 14], [26, 12, 37, 35, 9, 3, 27, 40, 48, 59, 1, 24, 28, 38, 4, 22, 31, 19, 8, 25, 7, 60, 56, 36, 53, 39, 5, 49, 33, 13, 6, 15, 58, 54, 41, 23, 14, 16, 47, 10, 21, 50, 34], [49, 13, 6, 15, 58, 54, 2, 23, 16, 47, 10, 21, 52, 34, 26, 37, 35, 9, 20, 27, 46, 17, 55, 11, 4, 42, 29, 31, 44, 8, 7, 36, 5, 43], [14, 57, 51, 26, 12, 37, 9, 27, 2, 59, 32, 24, 1, 38, 11, 22, 42, 30, 3, 44, 8, 7, 60, 56, 36, 53, 45, 5, 49, 13, 6, 15, 58], [47, 10, 52, 50, 57, 51, 26, 20, 27, 46, 48, 17, 32, 24, 28, 38, 11, 42, 30, 2, 29, 31, 44, 19, 25, 60, 36, 45, 39, 43, 49, 4, 23, 14, 3], [29, 31, 19, 3, 8, 7, 60, 56, 36, 45, 39, 49, 54, 41, 23, 16, 47, 21, 52, 34, 51, 26, 12, 37, 18, 20, 27, 40, 46, 2, 48, 32, 24, 28, 1, 11, 4], [6, 21, 52, 50, 34, 57, 51, 20, 27, 40, 48, 17, 59, 32, 38, 2, 55, 11, 22, 42, 30, 1, 19, 8, 25, 60, 56, 53, 4, 49, 13, 15, 3, 41, 23, 14], [6, 31, 44, 25, 56, 36, 53, 39, 49, 33, 13, 54, 41, 23, 14, 16, 47, 10, 21, 52, 50, 57, 26, 12, 2, 37, 18, 35, 9, 20, 27, 40, 1, 7, 4, 24, 3, 55, 22, 42], [51, 12, 37, 18, 2, 40, 46, 48, 17, 32, 24, 4, 28, 38, 11, 3, 42, 30, 29, 44, 19, 60, 8, 53, 39, 33, 13, 15, 54, 41, 23, 14, 10, 52, 50], [17, 32, 5, 38, 11, 3, 29, 44, 53, 8, 43, 49, 33, 13, 58, 54, 14, 16, 47, 21, 52, 34, 57, 26, 12, 37, 2, 27, 9, 40, 46, 48], [47, 10, 52, 50, 57, 51, 26, 12, 37, 18, 35, 20, 27, 40, 9, 46, 48, 17, 1, 5, 7, 28, 4, 55, 30, 3, 19, 36, 6, 43, 49, 33, 15, 58, 54], [45, 39, 43, 49, 2, 13, 9, 54, 1, 47, 21, 4, 52, 11, 50, 34, 57, 51, 26, 37, 18, 20, 27, 6, 8, 46, 48, 59, 32, 24, 28, 55, 10, 22, 30, 29, 31, 44, 25, 60, 56, 53], [3, 29, 19, 12, 25, 60, 56, 53, 39, 43, 8, 15, 58, 54, 14, 47, 52, 10, 34, 57, 26, 37, 27, 2, 9, 17, 32, 24, 28, 7, 38, 4, 22, 42, 30], [48, 17, 4, 32, 38, 42, 30, 13, 31, 19, 8, 25, 56, 43, 33, 10, 41, 47, 21, 52, 57, 51, 2, 9, 37, 18, 40, 1, 5, 7, 46], [31, 19, 25, 60, 36, 3, 53, 45, 39, 49, 33, 54, 13, 41, 23, 16, 47, 21, 50, 51, 18, 20, 27, 40, 48, 2, 9, 32, 24, 28, 38, 55, 1, 22, 7, 30, 4, 11], [25, 56, 39, 43, 49, 33, 3, 58, 41, 23, 15, 6, 47, 8, 52, 34, 18, 35, 10, 27, 40, 24, 2, 38, 55, 22, 30, 29, 44, 19], [10, 18, 14, 40, 59, 9, 24, 28, 55, 42, 1, 5, 30, 7, 29, 11, 19, 25, 60, 36, 3, 39, 43, 49, 58, 54, 13, 41, 23, 21, 52, 50, 57], [24, 17, 28, 9, 55, 22, 42, 29, 44, 19, 25, 36, 11, 53, 45, 43, 49, 58, 54, 12, 16, 15, 6, 21, 8, 52, 57, 51, 35, 20, 27, 14, 40, 46, 48, 59, 32], [15, 6, 13, 52, 50, 34, 57, 26, 18, 37, 35, 14, 27, 59, 32, 17, 28, 2, 9, 55, 22, 1, 5, 7, 60, 56, 36, 11, 53, 39, 33, 41, 16], [26, 37, 35, 27, 40, 46, 48, 59, 32, 5, 7, 24, 28, 11, 55, 22, 3, 12, 31, 25, 15, 56, 6, 53, 8, 45, 39, 49, 54, 18, 21, 52, 57, 51], [50, 1, 51, 7, 37, 3, 12, 48, 59, 32, 15, 6, 24, 8, 28, 38, 22, 42, 18, 29, 31, 44, 10, 25, 56, 36, 14, 53, 43, 49, 33, 58, 17, 41, 2, 20, 47], [27, 40, 46, 18, 32, 24, 38, 42, 30, 2, 31, 44, 20, 25, 36, 21, 53, 45, 39, 43, 7, 58, 19, 54, 4, 41, 23, 47, 12, 34, 57, 16, 15, 13, 8, 37], [52, 57, 51, 3, 37, 35, 16, 27, 15, 6, 8, 46, 48, 59, 32, 24, 28, 38, 55, 42, 29, 22, 60, 56, 36, 53, 17, 45, 39, 43, 2, 9, 58, 5, 7, 47], [18, 54, 41, 47, 22, 50, 57, 51, 17, 2, 20, 9, 35, 21, 27, 23, 5, 46, 48, 32, 4, 28, 55, 12, 42, 16, 15, 6, 13, 29, 31, 44, 8, 25, 60, 36, 53, 45, 49, 33], [16, 15, 13, 52, 8, 50, 34, 57, 18, 27, 40, 14, 48, 59, 22, 17, 38, 2, 20, 55, 21, 31, 1, 5, 7, 60, 53, 45, 43, 24, 49, 33, 54, 12, 41], [53, 2, 20, 54, 41, 5, 19, 4, 11, 52, 50, 34, 57, 3, 51, 12, 37, 35, 6, 13, 27, 8, 48, 59, 28, 10, 55, 42, 29, 44, 56, 36], [22, 37, 35, 2, 20, 46, 48, 23, 1, 5, 25, 7, 19, 28, 4, 11, 38, 24, 55, 42, 30, 3, 12, 26, 29, 44, 16, 36, 15, 6, 13, 53, 45, 8, 43, 49, 58, 54, 18, 10, 50, 34, 51], [18, 48, 59, 32, 17, 38, 2, 27, 20, 9, 42, 30, 21, 23, 31, 44, 1, 5, 60, 19, 45, 43, 11, 33, 24, 58, 54, 41, 12, 26, 47, 15, 6, 13, 34, 57, 51, 37], [6, 13, 47, 52, 50, 57, 18, 37, 10, 35, 32, 17, 27, 9, 38, 21, 42, 23, 30, 5, 31, 36, 24, 53, 39, 49, 3, 33, 12, 26, 58, 54, 16, 41], [41, 47, 50, 51, 14, 37, 22, 28, 17, 46, 48, 27, 9, 59, 32, 1, 5, 38, 55, 7, 29, 42, 4, 11, 44, 36, 12, 53, 39, 43, 49, 16, 15, 13], [15, 6, 8, 47, 50, 57, 14, 40, 48, 22, 59, 32, 28, 2, 20, 38, 55, 21, 42, 1, 5, 25, 29, 60, 36, 24, 39, 49, 33, 3, 12, 58], [58, 10, 54, 14, 41, 47, 22, 28, 52, 50, 34, 57, 20, 9, 21, 37, 35, 23, 5, 7, 40, 19, 31, 29, 30, 4, 46, 48, 24, 12, 38, 55, 42, 15, 6, 13, 60, 56, 53, 45, 39, 18, 33], [47, 34, 16, 57, 15, 8, 37, 35, 40, 46, 48, 59, 10, 14, 38, 28, 2, 9, 56, 36, 21, 53, 25, 19, 31, 29, 58, 54, 11, 41, 24, 32], [50, 51, 1, 33, 37, 7, 25, 19, 35, 32, 3, 12, 59, 26, 16, 6, 13, 38, 44, 53, 10, 45, 39, 58, 54, 41, 22, 28, 47, 2, 27, 52], [43, 49, 58, 54, 2, 27, 20, 41, 34, 23, 47, 33, 19, 29, 11, 51, 24, 32, 37, 3, 26, 16, 46, 48, 8, 38, 55, 18, 42, 44, 56, 36, 39], [15, 6, 52, 8, 37, 18, 46, 48, 59, 22, 17, 38, 2, 27, 21, 23, 1, 33, 5, 56, 19, 31, 29, 53, 30, 4, 39, 11, 43, 49, 24, 58, 54, 3, 35, 26], [51, 2, 27, 20, 9, 34, 21, 23, 40, 1, 33, 46, 36, 48, 19, 29, 59, 30, 4, 11, 32, 3, 35, 55, 12, 26, 42, 6, 13, 44, 8, 60, 56, 53, 45, 39, 43, 49, 58, 10, 14, 22, 28], [42, 44, 10, 60, 14, 39, 43, 22, 54, 28, 2, 27, 9, 47, 34, 21, 23, 50, 57, 33, 5, 51, 36, 7, 25, 31, 29, 30, 4, 32, 35, 40, 46, 16, 15, 13], [12, 44, 60, 56, 16, 15, 6, 13, 43, 8, 38, 54, 47, 50, 57, 22, 17, 2, 20, 9, 40, 37, 34, 46, 48, 59, 23, 1, 5, 36, 19, 31, 29, 30, 32, 42, 35], [55, 22, 17, 2, 20, 9, 37, 56, 53, 45, 1, 33, 7, 25, 31, 11, 32, 52, 16, 57, 15, 6, 39, 8, 38, 18, 59, 10, 14], [30, 24, 50, 32, 51, 35, 26, 16, 15, 6, 8, 55, 14, 44, 22, 60, 56, 28, 17, 53, 45, 43, 2, 9, 34, 58, 54, 21, 33, 7, 25, 19, 29, 47], [38, 18, 60, 56, 53, 45, 14, 43, 58, 22, 28, 17, 27, 9, 37, 52, 50, 21, 57, 23, 5, 7, 31, 29, 30, 4, 24, 32, 3, 46, 35, 48, 26, 59, 13, 39, 8], [35, 12, 44, 60, 56, 16, 53, 45, 13, 39, 42, 54, 38, 18, 47, 10, 52, 14, 50, 57, 22, 28, 17, 27, 37, 48, 21, 23, 41, 5, 36, 25, 30, 55, 11, 3], [43, 39, 8, 47, 38, 50, 57, 18, 10, 46, 48, 22, 59, 28, 27, 9, 37, 34, 21, 41, 5, 30, 4, 60, 24, 53, 49, 3, 35, 12, 26, 54, 16], [12, 52, 15, 6, 57, 43, 42, 40, 18, 59, 22, 28, 27, 20, 37, 34, 56, 23, 41, 53, 5, 25, 4, 24, 32], [22, 27, 20, 60, 9, 37, 53, 49, 23, 1, 33, 5, 54, 36, 44, 30, 11, 24, 32, 52, 3, 35, 12, 57, 6, 39, 42, 38, 48, 59, 18, 10, 14], [52, 33, 50, 5, 57, 44, 31, 51, 29, 30, 11, 24, 32, 3, 35, 12, 48, 16, 15, 6, 13, 43, 39, 8, 38, 55, 10, 14, 60, 53, 49, 22, 28, 54, 2, 34, 21, 23, 41], [14, 28, 2, 27, 20, 9, 37, 21, 47, 23, 55, 33, 5, 36, 7, 25, 44, 31, 30, 11, 24, 32, 60, 56, 35, 12, 53, 26, 49, 15, 6, 43, 39, 42, 46, 50, 18, 57, 51, 10], [3, 35, 12, 59, 16, 15, 6, 8, 46, 18, 10, 58, 17, 48, 27, 2, 20, 37, 52, 21, 47, 57, 51, 1, 5, 36, 7, 25, 44, 31, 29, 30, 4, 11, 24], [34, 21, 57, 47, 51, 41, 5, 7, 25, 19, 44, 31, 29, 30, 11, 24, 32, 12, 59, 26, 15, 43, 39, 55, 8, 42, 38, 60, 53, 58, 54, 17, 48, 2, 27, 9, 52], [9, 37, 34, 50, 21, 47, 23, 41, 1, 5, 7, 30, 4, 11, 24, 60, 56, 35, 53, 12, 26, 58, 15, 6, 38, 52, 18, 14, 49, 28, 48, 59, 27, 20], [59, 47, 23, 1, 5, 45, 36, 7, 25, 19, 29, 11, 32, 3, 12, 26, 60, 56, 16, 53, 6, 13, 43, 8, 58, 42, 46, 40, 18, 51, 10, 14, 49, 17, 20, 9, 34, 50], [26, 15, 13, 43, 8, 42, 46, 40, 18, 51, 52, 10, 22, 58, 54, 48, 2, 27, 20, 9, 37, 34, 50, 21, 47, 23, 41, 33, 45, 36, 7, 25, 19, 44, 29, 30, 4, 24, 32, 12], [24, 32, 59, 3, 35, 12, 26, 15, 6, 13, 43, 39, 8, 38, 46, 18, 10, 58, 53, 22, 28, 17, 2, 27, 20, 9, 34, 50, 47, 41, 1, 33, 36, 25, 44, 29, 11], [40, 18, 59, 17, 48, 27, 20, 37, 50, 47, 56, 23, 41, 1, 7, 25, 19, 31, 30, 58, 11, 24, 32, 3, 35, 12, 26, 16, 15, 57, 43, 8], [16, 6, 13, 43, 39, 59, 8, 42, 40, 51, 52, 14, 60, 55, 48, 58, 2, 20, 37, 21, 23, 41, 33, 45, 36, 7, 19, 4, 32, 35, 12, 26], [50, 47, 23, 33, 58, 5, 45, 7, 25, 19, 44, 31, 29, 4, 11, 24, 32, 12, 26, 13, 43, 39, 8, 42, 38, 46, 40, 59, 18, 10, 14, 49, 22, 55, 28, 17, 48, 20], [32, 59, 3, 35, 57, 16, 13, 42, 18, 51, 52, 10, 54, 49, 53, 56, 22, 55, 28, 17, 2, 27, 37, 50, 34, 21, 23, 41, 33, 36, 31, 29, 4, 11], [52, 54, 58, 49, 56, 55, 28, 60, 17, 2, 20, 37, 34, 50, 21, 23, 1, 33, 45, 36, 7, 25, 19, 44, 31, 30, 4, 12, 26, 57, 39, 42, 46, 40, 18, 51], [15, 6, 13, 43, 39, 42, 38, 59, 46, 51, 52, 56, 28, 17, 48, 2, 9, 37, 50, 47, 23, 41, 1, 5, 7, 25, 19, 44, 31, 4, 24, 32, 12]])
 1 (1), 2 (13), 3 (7), 4 (6), 5 (5), 6 (9), 7 (10), 8 (14), 9 (5), 10 (10), 11 (13), 12 (8), 13 (11), 14 (12), 15 (8), 16 (11), 17 (2), 18 (1), 19 (4), 20 (11), 21 (5), 22 (12), 23 (1), 24 (10), 25 (3), 26 (1), 27 (2), 28 (12), 29 (4), 30 (14), 31 (6), 32 (13), 33 (1), 34 (5), 35 (9), 36 (11), 37 (3), 38 (7), 39 (10), 40 (4), 41 (7), 42 (8), 43 (4), 44 (13), 45 (14), 46 (4), 47 (2), 48 (7), 49 (12), 50 (12), 51 (4), 52 (6), 53 (9), 54 (6), 55 (5), 56 (2), 57 (9), 58 (14), 59 (7), 60 (14),
objective_bound(model) = 9.0
objective_value(model) = 14.0
